# Solution for model GasLib-40
# Objective value = 1.3192885454017059e+01
loadshed[innode_1] 0
loadshed[innode_2] 0
loadshed[innode_3] 0
loadshed[innode_4] 0
loadshed[innode_5] 0
loadshed[innode_6] 0
loadshed[innode_7] 0
loadshed[innode_8] 0
loadshed[source_1] -2.6217468734872984e-01
loadshed[source_2] 7.9846458884436533e-02
loadshed[source_3] 2.6577982105709486e-01
loadshed[sink_1] 0
loadshed[sink_2] 0
loadshed[sink_3] 0
loadshed[sink_4] 0
loadshed[sink_5] 0
loadshed[sink_6] 0
loadshed[sink_7] 0
loadshed[sink_8] 0
loadshed[sink_9] 0
loadshed[sink_10] 0
loadshed[sink_11] 0
loadshed[sink_12] 8.0669872839849532e-01
loadshed[sink_13] 0
loadshed[sink_14] 0
loadshed[sink_15] 0
loadshed[sink_16] 0
loadshed[sink_17] 0
loadshed[sink_18] 0
loadshed[sink_19] 0
loadshed[sink_20] 0
loadshed[sink_21] 0
loadshed[sink_22] 0
loadshed[sink_23] 0
loadshed[sink_24] 0
loadshed[sink_25] 0
loadshed[sink_26] 0
loadshed[sink_27] 0
loadshed[sink_28] 0
loadshed[sink_29] 0
flow[source_1,sink_3] 1.9953754692704052e+02
flow[innode_1,sink_16] 1.6354166666666970e+01
flow[innode_6,sink_13] -1.5939053724663808e+00
flow[sink_13,sink_14] -1.7948072039133049e+01
flow[sink_14,sink_10] -3.4302238705799716e+01
flow[sink_25,sink_26] 1.7830157762496066e+02
flow[sink_26,sink_9] 1.5034878121265052e+02
flow[sink_9,sink_18] 1.3399461454598386e+02
flow[sink_26,sink_4] 1.1598629745643489e+01
flow[sink_4,sink_20] -16.387998365489
flow[sink_18,sink_6] 1.1764044787931721e+02
flow[sink_25,innode_8] -1.6682921359370414e+02
flow[sink_6,sink_7] 6.8577947879316980e+01
flow[sink_6,sink_22] 3.2708333333333641e+01
flow[sink_7,sink_24] 3.5869614545982941e+01
flow[sink_22,sink_1] 1.6354166666666970e+01
flow[sink_24,sink_21] 1.9515447879316277e+01
flow[sink_21,sink_12] 3.1612812126496075e+00
flow[sink_7,sink_5] 1.6354166666667368e+01
flow[sink_5,sink_17] 0
flow[sink_17,sink_4] -1.1632461444465822e+01
flow[sink_17,sink_8] -4.7217052222008462e+00
flow[sink_3,sink_23] 16.3541666666697
flow[sink_8,sink_20] -2.1075871888867514e+01
flow[sink_25,sink_20] 5.3818036921023065e+01
flow[sink_25,sink_15] -8.0050662246479831e+01
flow[sink_15,sink_29] -96.4048289131465
flow[sink_29,sink_28] 1.6354166666667879e+01
flow[sink_29,sink_2] 1.6354166666684250e+01
flow[sink_2,sink_15] 0
flow[sink_29,innode_7] -1.4546732891316529e+02
flow[innode_4,sink_19] 0
flow[sink_19,innode_3] 4.0681640606059638e+01
flow[innode_4,innode_5] 1.1607307203913358e+02
flow[sink_27,innode_5] -1.1607307203913358e+02
flow[sink_27,sink_19] 99.7189053724669
flow[sink_10,sink_11] 3.2708333333333641e+01
flow[sink_10,innode_2] -4.2683098099740384e+01
flow[sink_10,innode_3] -4.0681640606059638e+01
flow[innode_6,sink_25] 1.5939053724663808e+00
flow[sink_11,innode_1] 1.6354166666666970e+01
flow[sink_19,innode_2] 4.2683098099740384e+01
flow[source_3,innode_4] 1.1607307203913358e+02
flow[source_2,innode_7] 1.4546732891316529e+02
flow[sink_3,innode_8] 1.6682921359370414e+02
pressure[innode_1] 7.5421535753647348e+01
pressure[innode_2] 7.7829215082790938e+01
pressure[innode_3] 7.7739130196364869e+01
pressure[innode_4] 81.01325
pressure[innode_5] 8.0933408820499437e+01
pressure[innode_6] 7.3909882798114026e+01
pressure[innode_7] 81.01325
pressure[innode_8] 8.0346272206728713e+01
pressure[source_1] 81.01325
pressure[source_2] 81.01325
pressure[source_3] 81.01325
pressure[sink_1] 4.2262692444279821e+01
pressure[sink_2] 7.6708299320715469e+01
pressure[sink_3] 8.0346272206728713e+01
pressure[sink_4] 5.9877527592242764e+01
pressure[sink_5] 3.6620788268476545e+01
pressure[sink_6] 4.4363770054667192e+01
pressure[sink_7] 4.3422358295371261e+01
pressure[sink_8] 5.9611135477413391e+01
pressure[sink_9] 52.353444801598
pressure[sink_10] 75.5732370612509
pressure[sink_11] 7.5421535753647348e+01
pressure[sink_12] 1.01325
pressure[sink_13] 73.9186697320661
pressure[sink_14] 7.3950789335817831e+01
pressure[sink_15] 7.4298206513122622e+01
pressure[sink_16] 7.4399885918829668e+01
pressure[sink_17] 5.9432973272691228e+01
pressure[sink_18] 4.7505120274688522e+01
pressure[sink_19] 7.7829215082790938e+01
pressure[sink_20] 6.1079827352368646e+01
pressure[sink_21] 2.1382068730554398e+00
pressure[sink_22] 4.3326461586634828e+01
pressure[sink_23] 8.0181554195068941e+01
pressure[sink_24] 2.3543223263053212e+00
pressure[sink_25] 7.3909882798114026e+01
pressure[sink_26] 6.1352207396697743e+01
pressure[sink_27] 7.9970216802550013e+01
pressure[sink_28] 7.6827286545561947e+01
pressure[sink_29] 7.7122568819179122e+01
interdiction[source_1,sink_3] 0
interdiction[innode_1,sink_16] 0
interdiction[innode_6,sink_13] 0
interdiction[sink_13,sink_14] 0
interdiction[sink_14,sink_10] 0
interdiction[sink_25,sink_26] 0
interdiction[sink_26,sink_9] 0
interdiction[sink_9,sink_18] 0
interdiction[sink_26,sink_4] 0
interdiction[sink_4,sink_20] 0
interdiction[sink_18,sink_6] 0
interdiction[sink_25,innode_8] 0
interdiction[sink_6,sink_7] 0
interdiction[sink_6,sink_22] 0
interdiction[sink_7,sink_24] 0
interdiction[sink_22,sink_1] 0
interdiction[sink_24,sink_21] 0
interdiction[sink_21,sink_12] 0
interdiction[sink_7,sink_5] 0
interdiction[sink_5,sink_17] 1
interdiction[sink_17,sink_4] 0
interdiction[sink_17,sink_8] 0
interdiction[sink_3,sink_23] 0
interdiction[sink_8,sink_20] 0
interdiction[sink_25,sink_20] 0
interdiction[sink_25,sink_15] 0
interdiction[sink_15,sink_29] 0
interdiction[sink_29,sink_28] 0
interdiction[sink_29,sink_2] 0
interdiction[sink_2,sink_15] 1
interdiction[sink_29,innode_7] 0
interdiction[innode_4,sink_19] 1
interdiction[sink_19,innode_3] 0
interdiction[innode_4,innode_5] 0
interdiction[sink_27,innode_5] 0
interdiction[sink_27,sink_19] 0
interdiction[sink_10,sink_11] 0
interdiction[sink_10,innode_2] 0
interdiction[sink_10,innode_3] 0
interdiction[innode_6,sink_25] 0
interdiction[sink_11,innode_1] 0
interdiction[sink_19,innode_2] 0
interdiction[source_3,innode_4] 0
interdiction[source_2,innode_7] 0
interdiction[sink_3,innode_8] 0
WCcheckFlow[source_1,sink_3] 39
WCcheckFlow[innode_1,sink_16] 1
WCcheckFlow[innode_6,sink_13] 13
WCcheckFlow[sink_13,sink_14] 12
WCcheckFlow[sink_14,sink_10] 11
WCcheckFlow[sink_25,sink_26] 15
WCcheckFlow[sink_26,sink_9] 10
WCcheckFlow[sink_9,sink_18] 9
WCcheckFlow[sink_26,sink_4] 4
WCcheckFlow[sink_4,sink_20] 1
WCcheckFlow[sink_18,sink_6] 8
WCcheckFlow[sink_25,innode_8] -36
WCcheckFlow[sink_6,sink_7] 5
WCcheckFlow[sink_6,sink_22] 2
WCcheckFlow[sink_7,sink_24] 3
WCcheckFlow[sink_22,sink_1] 1
WCcheckFlow[sink_24,sink_21] 2
WCcheckFlow[sink_21,sink_12] 1
WCcheckFlow[sink_7,sink_5] 1
WCcheckFlow[sink_5,sink_17] 0
WCcheckFlow[sink_17,sink_4] -2
WCcheckFlow[sink_17,sink_8] 1
WCcheckFlow[sink_3,sink_23] 1
WCcheckFlow[sink_8,sink_20] 0
WCcheckFlow[sink_25,sink_20] 0
WCcheckFlow[sink_25,sink_15] 6
WCcheckFlow[sink_15,sink_29] 5
WCcheckFlow[sink_29,sink_28] 1
WCcheckFlow[sink_29,sink_2] 1
WCcheckFlow[sink_2,sink_15] 0
WCcheckFlow[sink_29,innode_7] 2
WCcheckFlow[innode_4,sink_19] 0
WCcheckFlow[sink_19,innode_3] -5
WCcheckFlow[innode_4,innode_5] -2
WCcheckFlow[sink_27,innode_5] 3
WCcheckFlow[sink_27,sink_19] -4
WCcheckFlow[sink_10,sink_11] 3
WCcheckFlow[sink_10,innode_2] 1
WCcheckFlow[sink_10,innode_3] 6
WCcheckFlow[innode_6,sink_25] -14
WCcheckFlow[sink_11,innode_1] 2
WCcheckFlow[sink_19,innode_2] 0
WCcheckFlow[source_3,innode_4] -1
WCcheckFlow[source_2,innode_7] -1
WCcheckFlow[sink_3,innode_8] 37
